p cnf 162 1395
19 28 37 46 55 64 73 0
2 11 20 29 38 47 56 65 74 0
3 12 21 30 39 48 57 66 75 0
4 13 22 31 40 49 58 67 76 0
5 14 23 32 41 50 59 68 77 0
6 15 24 33 42 51 60 69 78 0
7 16 25 34 43 52 61 70 79 0
8 17 26 35 44 53 62 71 80 0
9 18 27 36 45 54 63 72 81 0
82 91 100 109 118 127 136 145 154 0
83 92 101 110 119 128 137 146 155 0
84 93 102 111 120 129 138 147 156 0
85 94 103 112 121 130 139 148 157 0
86 95 104 113 122 131 140 149 158 0
87 96 105 114 123 132 141 150 159 0
88 97 106 115 124 133 142 151 160 0
89 98 107 116 125 134 143 152 161 0
90 99 108 117 126 135 144 153 162 0
-1 -10 0
-1 -19 0
-1 -28 0
-1 -37 0
-1 -46 0
-1 -55 0
-1 -64 0
-1 -73 0
-10 -19 0
-10 -28 0
-10 -37 0
-10 -46 0
-10 -55 0
-10 -64 0
-10 -73 0
-19 -28 0
-19 -37 0
-19 -46 0
-19 -55 0
-19 -64 0
-19 -73 0
-28 -37 0
-28 -46 0
-28 -55 0
-28 -64 0
-28 -73 0
-37 -46 0
-37 -55 0
-37 -64 0
-37 -73 0
-46 -55 0
-46 -64 0
-46 -73 0
-55 -64 0
-55 -73 0
-64 -73 0
-2 -11 0
-2 -20 0
-2 -29 0
-2 -38 0
-2 -47 0
-2 -56 0
-2 -65 0
-2 -74 0
-11 -20 0
-11 -29 0
-11 -38 0
-11 -47 0
-11 -56 0
-11 -65 0
-11 -74 0
-20 -29 0
-20 -38 0
-20 -47 0
-20 -56 0
-20 -65 0
-20 -74 0
-29 -38 0
-29 -47 0
-29 -56 0
-29 -65 0
-29 -74 0
-38 -47 0
-38 -56 0
-38 -65 0
-38 -74 0
-47 -56 0
-47 -65 0
-47 -74 0
-56 -65 0
-56 -74 0
-65 -74 0
-3 -12 0
-3 -21 0
-3 -30 0
-3 -39 0
-3 -48 0
-3 -57 0
-3 -66 0
-3 -75 0
-12 -21 0
-12 -30 0
-12 -39 0
-12 -48 0
-12 -57 0
-12 -66 0
-12 -75 0
-21 -30 0
-21 -39 0
-21 -48 0
-21 -57 0
-21 -66 0
-21 -75 0
-30 -39 0
-30 -48 0
-30 -57 0
-30 -66 0
-30 -75 0
-39 -48 0
-39 -57 0
-39 -66 0
-39 -75 0
-48 -57 0
-48 -66 0
-48 -75 0
-57 -66 0
-57 -75 0
-66 -75 0
-4 -13 0
-4 -22 0
-4 -31 0
-4 -40 0
-4 -49 0
-4 -58 0
-4 -67 0
-4 -76 0
-13 -22 0
-13 -31 0
-13 -40 0
-13 -49 0
-13 -58 0
-13 -67 0
-13 -76 0
-22 -31 0
-22 -40 0
-22 -49 0
-22 -58 0
-22 -67 0
-22 -76 0
-31 -40 0
-31 -49 0
-31 -58 0
-31 -67 0
-31 -76 0
-40 -49 0
-40 -58 0
-40 -67 0
-40 -76 0
-49 -58 0
-49 -67 0
-49 -76 0
-58 -67 0
-58 -76 0
-67 -76 0
-5 -14 0
-5 -23 0
-5 -32 0
-5 -41 0
-5 -50 0
-5 -59 0
-5 -68 0
-5 -77 0
-14 -23 0
-14 -32 0
-14 -41 0
-14 -50 0
-14 -59 0
-14 -68 0
-14 -77 0
-23 -32 0
-23 -41 0
-23 -50 0
-23 -59 0
-23 -68 0
-23 -77 0
-32 -41 0
-32 -50 0
-32 -59 0
-32 -68 0
-32 -77 0
-41 -50 0
-41 -59 0
-41 -68 0
-41 -77 0
-50 -59 0
-50 -68 0
-50 -77 0
-59 -68 0
-59 -77 0
-68 -77 0
-6 -15 0
-6 -24 0
-6 -33 0
-6 -42 0
-6 -51 0
-6 -60 0
-6 -69 0
-6 -78 0
-15 -24 0
-15 -33 0
-15 -42 0
-15 -51 0
-15 -60 0
-15 -69 0
-15 -78 0
-24 -33 0
-24 -42 0
-24 -51 0
-24 -60 0
-24 -69 0
-24 -78 0
-33 -42 0
-33 -51 0
-33 -60 0
-33 -69 0
-33 -78 0
-42 -51 0
-42 -60 0
-42 -69 0
-42 -78 0
-51 -60 0
-51 -69 0
-51 -78 0
-60 -69 0
-60 -78 0
-69 -78 0
-7 -16 0
-7 -25 0
-7 -34 0
-7 -43 0
-7 -52 0
-7 -61 0
-7 -70 0
-7 -79 0
-16 -25 0
-16 -34 0
-16 -43 0
-16 -52 0
-16 -61 0
-16 -70 0
-16 -79 0
-25 -34 0
-25 -43 0
-25 -52 0
-25 -61 0
-25 -70 0
-25 -79 0
-34 -43 0
-34 -52 0
-34 -61 0
-34 -70 0
-34 -79 0
-43 -52 0
-43 -61 0
-43 -70 0
-43 -79 0
-52 -61 0
-52 -70 0
-52 -79 0
-61 -70 0
-61 -79 0
-70 -79 0
-8 -17 0
-8 -26 0
-8 -35 0
-8 -44 0
-8 -53 0
-8 -62 0
-8 -71 0
-8 -80 0
-17 -26 0
-17 -35 0
-17 -44 0
-17 -53 0
-17 -62 0
-17 -71 0
-17 -80 0
-26 -35 0
-26 -44 0
-26 -53 0
-26 -62 0
-26 -71 0
-26 -80 0
-35 -44 0
-35 -53 0
-35 -62 0
-35 -71 0
-35 -80 0
-44 -53 0
-44 -62 0
-44 -71 0
-44 -80 0
-53 -62 0
-53 -71 0
-53 -80 0
-62 -71 0
-62 -80 0
-71 -80 0
-9 -18 0
-9 -27 0
-9 -36 0
-9 -45 0
-9 -54 0
-9 -63 0
-9 -72 0
-9 -81 0
-18 -27 0
-18 -36 0
-18 -45 0
-18 -54 0
-18 -63 0
-18 -72 0
-18 -81 0
-27 -36 0
-27 -45 0
-27 -54 0
-27 -63 0
-27 -72 0
-27 -81 0
-36 -45 0
-36 -54 0
-36 -63 0
-36 -72 0
-36 -81 0
-45 -54 0
-45 -63 0
-45 -72 0
-45 -81 0
-54 -63 0
-54 -72 0
-54 -81 0
-63 -72 0
-63 -81 0
-72 -81 0
-82 -91 0
-82 -100 0
-82 -109 0
-82 -118 0
-82 -127 0
-82 -136 0
-82 -145 0
-82 -154 0
-91 -100 0
-91 -109 0
-91 -118 0
-91 -127 0
-91 -136 0
-91 -145 0
-91 -154 0
-100 -109 0
-100 -118 0
-100 -127 0
-100 -136 0
-100 -145 0
-100 -154 0
-109 -118 0
-109 -127 0
-109 -136 0
-109 -145 0
-109 -154 0
-118 -127 0
-118 -136 0
-118 -145 0
-118 -154 0
-127 -136 0
-127 -145 0
-127 -154 0
-136 -145 0
-136 -154 0
-145 -154 0
-83 -92 0
-83 -101 0
-83 -110 0
-83 -119 0
-83 -128 0
-83 -137 0
-83 -146 0
-83 -155 0
-92 -101 0
-92 -110 0
-92 -119 0
-92 -128 0
-92 -137 0
-92 -146 0
-92 -155 0
-101 -110 0
-101 -119 0
-101 -128 0
-101 -137 0
-101 -146 0
-101 -155 0
-110 -119 0
-110 -128 0
-110 -137 0
-110 -146 0
-110 -155 0
-119 -128 0
-119 -137 0
-119 -146 0
-119 -155 0
-128 -137 0
-128 -146 0
-128 -155 0
-137 -146 0
-137 -155 0
-146 -155 0
-84 -93 0
-84 -102 0
-84 -111 0
-84 -120 0
-84 -129 0
-84 -138 0
-84 -147 0
-84 -156 0
-93 -102 0
-93 -111 0
-93 -120 0
-93 -129 0
-93 -138 0
-93 -147 0
-93 -156 0
-102 -111 0
-102 -120 0
-102 -129 0
-102 -138 0
-102 -147 0
-102 -156 0
-111 -120 0
-111 -129 0
-111 -138 0
-111 -147 0
-111 -156 0
-120 -129 0
-120 -138 0
-120 -147 0
-120 -156 0
-129 -138 0
-129 -147 0
-129 -156 0
-138 -147 0
-138 -156 0
-147 -156 0
-85 -94 0
-85 -103 0
-85 -112 0
-85 -121 0
-85 -130 0
-85 -139 0
-85 -148 0
-85 -157 0
-94 -103 0
-94 -112 0
-94 -121 0
-94 -130 0
-94 -139 0
-94 -148 0
-94 -157 0
-103 -112 0
-103 -121 0
-103 -130 0
-103 -139 0
-103 -148 0
-103 -157 0
-112 -121 0
-112 -130 0
-112 -139 0
-112 -148 0
-112 -157 0
-121 -130 0
-121 -139 0
-121 -148 0
-121 -157 0
-130 -139 0
-130 -148 0
-130 -157 0
-139 -148 0
-139 -157 0
-148 -157 0
-86 -95 0
-86 -104 0
-86 -113 0
-86 -122 0
-86 -131 0
-86 -140 0
-86 -149 0
-86 -158 0
-95 -104 0
-95 -113 0
-95 -122 0
-95 -131 0
-95 -140 0
-95 -149 0
-95 -158 0
-104 -113 0
-104 -122 0
-104 -131 0
-104 -140 0
-104 -149 0
-104 -158 0
-113 -122 0
-113 -131 0
-113 -140 0
-113 -149 0
-113 -158 0
-122 -131 0
-122 -140 0
-122 -149 0
-122 -158 0
-131 -140 0
-131 -149 0
-131 -158 0
-140 -149 0
-140 -158 0
-149 -158 0
-87 -96 0
-87 -105 0
-87 -114 0
-87 -123 0
-87 -132 0
-87 -141 0
-87 -150 0
-87 -159 0
-96 -105 0
-96 -114 0
-96 -123 0
-96 -132 0
-96 -141 0
-96 -150 0
-96 -159 0
-105 -114 0
-105 -123 0
-105 -132 0
-105 -141 0
-105 -150 0
-105 -159 0
-114 -123 0
-114 -132 0
-114 -141 0
-114 -150 0
-114 -159 0
-123 -132 0
-123 -141 0
-123 -150 0
-123 -159 0
-132 -141 0
-132 -150 0
-132 -159 0
-141 -150 0
-141 -159 0
-150 -159 0
-88 -97 0
-88 -106 0
-88 -115 0
-88 -124 0
-88 -133 0
-88 -142 0
-88 -151 0
-88 -160 0
-97 -106 0
-97 -115 0
-97 -124 0
-97 -133 0
-97 -142 0
-97 -151 0
-97 -160 0
-106 -115 0
-106 -124 0
-106 -133 0
-106 -142 0
-106 -151 0
-106 -160 0
-115 -124 0
-115 -133 0
-115 -142 0
-115 -151 0
-115 -160 0
-124 -133 0
-124 -142 0
-124 -151 0
-124 -160 0
-133 -142 0
-133 -151 0
-133 -160 0
-142 -151 0
-142 -160 0
-151 -160 0
-89 -98 0
-89 -107 0
-89 -116 0
-89 -125 0
-89 -134 0
-89 -143 0
-89 -152 0
-89 -161 0
-98 -107 0
-98 -116 0
-98 -125 0
-98 -134 0
-98 -143 0
-98 -152 0
-98 -161 0
-107 -116 0
-107 -125 0
-107 -134 0
-107 -143 0
-107 -152 0
-107 -161 0
-116 -125 0
-116 -134 0
-116 -143 0
-116 -152 0
-116 -161 0
-125 -134 0
-125 -143 0
-125 -152 0
-125 -161 0
-134 -143 0
-134 -152 0
-134 -161 0
-143 -152 0
-143 -161 0
-152 -161 0
-90 -99 0
-90 -108 0
-90 -117 0
-90 -126 0
-90 -135 0
-90 -144 0
-90 -153 0
-90 -162 0
-99 -108 0
-99 -117 0
-99 -126 0
-99 -135 0
-99 -144 0
-99 -153 0
-99 -162 0
-108 -117 0
-108 -126 0
-108 -135 0
-108 -144 0
-108 -153 0
-108 -162 0
-117 -126 0
-117 -135 0
-117 -144 0
-117 -153 0
-117 -162 0
-126 -135 0
-126 -144 0
-126 -153 0
-126 -162 0
-135 -144 0
-135 -153 0
-135 -162 0
-144 -153 0
-144 -162 0
-153 -162 0
-1 -2 0
-1 -3 0
-1 -4 0
-1 -5 0
-1 -6 0
-1 -7 0
-1 -8 0
-1 -9 0
-2 -3 0
-2 -4 0
-2 -5 0
-2 -6 0
-2 -7 0
-2 -8 0
-2 -9 0
-3 -4 0
-3 -5 0
-3 -6 0
-3 -7 0
-3 -8 0
-3 -9 0
-4 -5 0
-4 -6 0
-4 -7 0
-4 -8 0
-4 -9 0
-5 -6 0
-5 -7 0
-5 -8 0
-5 -9 0
-6 -7 0
-6 -8 0
-6 -9 0
-7 -8 0
-7 -9 0
-8 -9 0
-10 -11 0
-10 -12 0
-10 -13 0
-10 -14 0
-10 -15 0
-10 -16 0
-10 -17 0
-10 -18 0
-11 -12 0
-11 -13 0
-11 -14 0
-11 -15 0
-11 -16 0
-11 -17 0
-11 -18 0
-12 -13 0
-12 -14 0
-12 -15 0
-12 -16 0
-12 -17 0
-12 -18 0
-13 -14 0
-13 -15 0
-13 -16 0
-13 -17 0
-13 -18 0
-14 -15 0
-14 -16 0
-14 -17 0
-14 -18 0
-15 -16 0
-15 -17 0
-15 -18 0
-16 -17 0
-16 -18 0
-17 -18 0
-19 -20 0
-19 -21 0
-19 -22 0
-19 -23 0
-19 -24 0
-19 -25 0
-19 -26 0
-19 -27 0
-20 -21 0
-20 -22 0
-20 -23 0
-20 -24 0
-20 -25 0
-20 -26 0
-20 -27 0
-21 -22 0
-21 -23 0
-21 -24 0
-21 -25 0
-21 -26 0
-21 -27 0
-22 -23 0
-22 -24 0
-22 -25 0
-22 -26 0
-22 -27 0
-23 -24 0
-23 -25 0
-23 -26 0
-23 -27 0
-24 -25 0
-24 -26 0
-24 -27 0
-25 -26 0
-25 -27 0
-26 -27 0
-28 -29 0
-28 -30 0
-28 -31 0
-28 -32 0
-28 -33 0
-28 -34 0
-28 -35 0
-28 -36 0
-29 -30 0
-29 -31 0
-29 -32 0
-29 -33 0
-29 -34 0
-29 -35 0
-29 -36 0
-30 -31 0
-30 -32 0
-30 -33 0
-30 -34 0
-30 -35 0
-30 -36 0
-31 -32 0
-31 -33 0
-31 -34 0
-31 -35 0
-31 -36 0
-32 -33 0
-32 -34 0
-32 -35 0
-32 -36 0
-33 -34 0
-33 -35 0
-33 -36 0
-34 -35 0
-34 -36 0
-35 -36 0
-37 -38 0
-37 -39 0
-37 -40 0
-37 -41 0
-37 -42 0
-37 -43 0
-37 -44 0
-37 -45 0
-38 -39 0
-38 -40 0
-38 -41 0
-38 -42 0
-38 -43 0
-38 -44 0
-38 -45 0
-39 -40 0
-39 -41 0
-39 -42 0
-39 -43 0
-39 -44 0
-39 -45 0
-40 -41 0
-40 -42 0
-40 -43 0
-40 -44 0
-40 -45 0
-41 -42 0
-41 -43 0
-41 -44 0
-41 -45 0
-42 -43 0
-42 -44 0
-42 -45 0
-43 -44 0
-43 -45 0
-44 -45 0
-46 -47 0
-46 -48 0
-46 -49 0
-46 -50 0
-46 -51 0
-46 -52 0
-46 -53 0
-46 -54 0
-47 -48 0
-47 -49 0
-47 -50 0
-47 -51 0
-47 -52 0
-47 -53 0
-47 -54 0
-48 -49 0
-48 -50 0
-48 -51 0
-48 -52 0
-48 -53 0
-48 -54 0
-49 -50 0
-49 -51 0
-49 -52 0
-49 -53 0
-49 -54 0
-50 -51 0
-50 -52 0
-50 -53 0
-50 -54 0
-51 -52 0
-51 -53 0
-51 -54 0
-52 -53 0
-52 -54 0
-53 -54 0
-55 -56 0
-55 -57 0
-55 -58 0
-55 -59 0
-55 -60 0
-55 -61 0
-55 -62 0
-55 -63 0
-56 -57 0
-56 -58 0
-56 -59 0
-56 -60 0
-56 -61 0
-56 -62 0
-56 -63 0
-57 -58 0
-57 -59 0
-57 -60 0
-57 -61 0
-57 -62 0
-57 -63 0
-58 -59 0
-58 -60 0
-58 -61 0
-58 -62 0
-58 -63 0
-59 -60 0
-59 -61 0
-59 -62 0
-59 -63 0
-60 -61 0
-60 -62 0
-60 -63 0
-61 -62 0
-61 -63 0
-62 -63 0
-64 -65 0
-64 -66 0
-64 -67 0
-64 -68 0
-64 -69 0
-64 -70 0
-64 -71 0
-64 -72 0
-65 -66 0
-65 -67 0
-65 -68 0
-65 -69 0
-65 -70 0
-65 -71 0
-65 -72 0
-66 -67 0
-66 -68 0
-66 -69 0
-66 -70 0
-66 -71 0
-66 -72 0
-67 -68 0
-67 -69 0
-67 -70 0
-67 -71 0
-67 -72 0
-68 -69 0
-68 -70 0
-68 -71 0
-68 -72 0
-69 -70 0
-69 -71 0
-69 -72 0
-70 -71 0
-70 -72 0
-71 -72 0
-73 -74 0
-73 -75 0
-73 -76 0
-73 -77 0
-73 -78 0
-73 -79 0
-73 -80 0
-73 -81 0
-74 -75 0
-74 -76 0
-74 -77 0
-74 -78 0
-74 -79 0
-74 -80 0
-74 -81 0
-75 -76 0
-75 -77 0
-75 -78 0
-75 -79 0
-75 -80 0
-75 -81 0
-76 -77 0
-76 -78 0
-76 -79 0
-76 -80 0
-76 -81 0
-77 -78 0
-77 -79 0
-77 -80 0
-77 -81 0
-78 -79 0
-78 -80 0
-78 -81 0
-79 -80 0
-79 -81 0
-80 -81 0
-82 -83 0
-82 -84 0
-82 -85 0
-82 -86 0
-82 -87 0
-82 -88 0
-82 -89 0
-82 -90 0
-83 -84 0
-83 -85 0
-83 -86 0
-83 -87 0
-83 -88 0
-83 -89 0
-83 -90 0
-84 -85 0
-84 -86 0
-84 -87 0
-84 -88 0
-84 -89 0
-84 -90 0
-85 -86 0
-85 -87 0
-85 -88 0
-85 -89 0
-85 -90 0
-86 -87 0
-86 -88 0
-86 -89 0
-86 -90 0
-87 -88 0
-87 -89 0
-87 -90 0
-88 -89 0
-88 -90 0
-89 -90 0
-91 -92 0
-91 -93 0
-91 -94 0
-91 -95 0
-91 -96 0
-91 -97 0
-91 -98 0
-91 -99 0
-92 -93 0
-92 -94 0
-92 -95 0
-92 -96 0
-92 -97 0
-92 -98 0
-92 -99 0
-93 -94 0
-93 -95 0
-93 -96 0
-93 -97 0
-93 -98 0
-93 -99 0
-94 -95 0
-94 -96 0
-94 -97 0
-94 -98 0
-94 -99 0
-95 -96 0
-95 -97 0
-95 -98 0
-95 -99 0
-96 -97 0
-96 -98 0
-96 -99 0
-97 -98 0
-97 -99 0
-98 -99 0
-100 -101 0
-100 -102 0
-100 -103 0
-100 -104 0
-100 -105 0
-100 -106 0
-100 -107 0
-100 -108 0
-101 -102 0
-101 -103 0
-101 -104 0
-101 -105 0
-101 -106 0
-101 -107 0
-101 -108 0
-102 -103 0
-102 -104 0
-102 -105 0
-102 -106 0
-102 -107 0
-102 -108 0
-103 -104 0
-103 -105 0
-103 -106 0
-103 -107 0
-103 -108 0
-104 -105 0
-104 -106 0
-104 -107 0
-104 -108 0
-105 -106 0
-105 -107 0
-105 -108 0
-106 -107 0
-106 -108 0
-107 -108 0
-109 -110 0
-109 -111 0
-109 -112 0
-109 -113 0
-109 -114 0
-109 -115 0
-109 -116 0
-109 -117 0
-110 -111 0
-110 -112 0
-110 -113 0
-110 -114 0
-110 -115 0
-110 -116 0
-110 -117 0
-111 -112 0
-111 -113 0
-111 -114 0
-111 -115 0
-111 -116 0
-111 -117 0
-112 -113 0
-112 -114 0
-112 -115 0
-112 -116 0
-112 -117 0
-113 -114 0
-113 -115 0
-113 -116 0
-113 -117 0
-114 -115 0
-114 -116 0
-114 -117 0
-115 -116 0
-115 -117 0
-116 -117 0
-118 -119 0
-118 -120 0
-118 -121 0
-118 -122 0
-118 -123 0
-118 -124 0
-118 -125 0
-118 -126 0
-119 -120 0
-119 -121 0
-119 -122 0
-119 -123 0
-119 -124 0
-119 -125 0
-119 -126 0
-120 -121 0
-120 -122 0
-120 -123 0
-120 -124 0
-120 -125 0
-120 -126 0
-121 -122 0
-121 -123 0
-121 -124 0
-121 -125 0
-121 -126 0
-122 -123 0
-122 -124 0
-122 -125 0
-122 -126 0
-123 -124 0
-123 -125 0
-123 -126 0
-124 -125 0
-124 -126 0
-125 -126 0
-127 -128 0
-127 -129 0
-127 -130 0
-127 -131 0
-127 -132 0
-127 -133 0
-127 -134 0
-127 -135 0
-128 -129 0
-128 -130 0
-128 -131 0
-128 -132 0
-128 -133 0
-128 -134 0
-128 -135 0
-129 -130 0
-129 -131 0
-129 -132 0
-129 -133 0
-129 -134 0
-129 -135 0
-130 -131 0
-130 -132 0
-130 -133 0
-130 -134 0
-130 -135 0
-131 -132 0
-131 -133 0
-131 -134 0
-131 -135 0
-132 -133 0
-132 -134 0
-132 -135 0
-133 -134 0
-133 -135 0
-134 -135 0
-136 -137 0
-136 -138 0
-136 -139 0
-136 -140 0
-136 -141 0
-136 -142 0
-136 -143 0
-136 -144 0
-137 -138 0
-137 -139 0
-137 -140 0
-137 -141 0
-137 -142 0
-137 -143 0
-137 -144 0
-138 -139 0
-138 -140 0
-138 -141 0
-138 -142 0
-138 -143 0
-138 -144 0
-139 -140 0
-139 -141 0
-139 -142 0
-139 -143 0
-139 -144 0
-140 -141 0
-140 -142 0
-140 -143 0
-140 -144 0
-141 -142 0
-141 -143 0
-141 -144 0
-142 -143 0
-142 -144 0
-143 -144 0
-145 -146 0
-145 -147 0
-145 -148 0
-145 -149 0
-145 -150 0
-145 -151 0
-145 -152 0
-145 -153 0
-146 -147 0
-146 -148 0
-146 -149 0
-146 -150 0
-146 -151 0
-146 -152 0
-146 -153 0
-147 -148 0
-147 -149 0
-147 -150 0
-147 -151 0
-147 -152 0
-147 -153 0
-148 -149 0
-148 -150 0
-148 -151 0
-148 -152 0
-148 -153 0
-149 -150 0
-149 -151 0
-149 -152 0
-149 -153 0
-150 -151 0
-150 -152 0
-150 -153 0
-151 -152 0
-151 -153 0
-152 -153 0
-154 -155 0
-154 -156 0
-154 -157 0
-154 -158 0
-154 -159 0
-154 -160 0
-154 -161 0
-154 -162 0
-155 -156 0
-155 -157 0
-155 -158 0
-155 -159 0
-155 -160 0
-155 -161 0
-155 -162 0
-156 -157 0
-156 -158 0
-156 -159 0
-156 -160 0
-156 -161 0
-156 -162 0
-157 -158 0
-157 -159 0
-157 -160 0
-157 -161 0
-157 -162 0
-158 -159 0
-158 -160 0
-158 -161 0
-158 -162 0
-159 -160 0
-159 -161 0
-159 -162 0
-160 -161 0
-160 -162 0
-161 -162 0
-1 82 0
-10 91 0
-19 100 0
-28 109 0
-37 118 0
-46 127 0
-55 136 0
-64 145 0
-73 154 0
-2 92 0
-11 83 101 0
-20 92 110 0
-29 101 119 0
-38 110 128 0
-47 119 137 0
-56 128 146 0
-65 137 155 0
-74 146 0
-3 102 0
-12 111 0
-21 84 120 0
-30 93 129 0
-39 102 138 0
-48 111 147 0
-57 120 156 0
-66 129 0
-75 138 0
-4 112 0
-13 121 0
-22 130 0
-31 85 139 0
-40 94 148 0
-49 103 157 0
-58 112 0
-67 121 0
-76 130 0
-5 122 0
-14 131 0
-23 140 0
-32 149 0
-41 86 158 0
-50 95 0
-59 104 0
-68 113 0
-77 122 0
-6 132 0
-15 141 0
-24 150 0
-33 159 0
-42 0
-51 87 0
-60 96 0
-69 105 0
-78 114 0
-7 142 0
-16 151 0
-25 160 0
-34 0
-43 0
-52 0
-61 88 0
-70 97 0
-79 106 0
-8 152 0
-17 161 0
-26 0
-35 0
-44 0
-53 0
-62 0
-71 89 0
-80 98 0
-9 162 0
-18 0
-27 0
-36 0
-45 0
-54 0
-63 0
-72 0
-81 90 0
